HUN,8,6,846
5,37,1,3,0,52,3,6,2,64,4,80
1,38,0,83,5,32,2,80,4,35,3,86
0,63,4,85,3,100,2,13,1,30,5,16
3,19,5,43,4,40,1,19,0,69,2,84
0,96,4,67,1,70,2,10,3,89,5,25
1,76,5,81,3,100,4,81,0,78,2,50
0,81,5,81,3,10,4,44,1,14,2,85
4,23,3,23,2,69,5,7,1,12,0,10
